p cnf 10 50
6 -1 2 0
2 -5 1 0
5 8 10 0
8 2 7 0
8 1 -3 0
-2 -1 10 0
-5 -4 -10 0
6 1 -4 0
5 -9 1 0
-9 4 8 0
10 4 5 0
8 6 1 0
10 -3 9 0
8 2 1 0
5 8 6 0
2 -8 7 0
8 10 -3 0
2 -1 -4 0
10 3 2 0
8 -4 -10 0
2 3 10 0
2 1 9 0
9 -8 -3 0
9 -5 8 0
3 6 -7 0
7 -10 -2 0
1 -8 3 0
3 4 2 0
-4 8 -10 0
-5 8 -9 0
-3 -10 -2 0
-9 -7 -4 0
-6 -10 4 0
-8 -1 -4 0
-9 3 10 0
-5 -4 10 0
-2 9 8 0
1 -4 -7 0
-5 7 1 0
-1 -5 2 0
4 10 -7 0
2 4 7 0
3 -5 -7 0
-9 -8 -5 0
-7 -6 -4 0
5 8 -1 0
-10 -7 -2 0
9 -7 -3 0
7 -3 -5 0
-7 -3 2 0
